p cnf 911 1659              
9 50 0
-17 50 0
-9 17 -50 0
10 51 0
-18 51 0
-10 18 -51 0
11 52 0
-19 52 0
-11 19 -52 0
12 53 0
-20 53 0
-12 20 -53 0
13 54 0
-21 54 0
-13 21 -54 0
14 55 0
-22 55 0
-14 22 -55 0
15 56 0
-23 56 0
-15 23 -56 0
16 57 0
-24 57 0
-16 24 -57 0
-50 -51 -52 -53 -54 -55 -56 -57 58 0
17 59 0
-9 59 0
18 60 0
-10 60 0
19 61 0
-11 61 0
20 62 0
-12 62 0
21 63 0
-13 63 0
22 64 0
-14 64 0
23 65 0
-15 65 0
24 66 0
-16 66 0
-59 -60 -61 -62 -63 -64 -65 -66 67 0
-58 -67 68 0
-68 -871 0
-10 -9 -25 0
25 -27 0
9 10 -26 0
26 -27 0
27 -49 0
-12 -11 -28 0
28 -30 0
11 12 -29 0
29 -30 0
30 -49 0
-14 -13 -31 0
31 -33 0
13 14 -32 0
32 -33 0
33 -49 0
-16 -15 -34 0
34 -36 0
15 16 -35 0
35 -36 0
36 -49 0
-18 -17 -37 0
37 -39 0
17 18 -38 0
38 -39 0
39 -49 0
-20 -19 -40 0
40 -42 0
19 20 -41 0
41 -42 0
42 -49 0
-22 -21 -43 0
43 -45 0
21 22 -44 0
44 -45 0
45 -49 0
-24 -23 -46 0
46 -48 0
23 24 -47 0
47 -48 0
48 -49 0
49 -871 0
-9 -69 0
10 -69 0
9 -10 69 0
-1 69 -70 0
1 -69 -70 0
69 -69 -70 0
70 -85 0
-11 -71 0
12 -71 0
11 -12 71 0
-2 71 -72 0
2 -71 -72 0
71 -71 -72 0
72 -85 0
-13 -73 0
14 -73 0
13 -14 73 0
-3 73 -74 0
3 -73 -74 0
73 -73 -74 0
74 -85 0
-15 -75 0
16 -75 0
15 -16 75 0
-4 75 -76 0
4 -75 -76 0
75 -75 -76 0
76 -85 0
-17 -77 0
18 -77 0
17 -18 77 0
-5 77 -78 0
5 -77 -78 0
77 -77 -78 0
78 -85 0
-19 -79 0
20 -79 0
19 -20 79 0
-6 79 -80 0
6 -79 -80 0
79 -79 -80 0
80 -85 0
-21 -81 0
22 -81 0
21 -22 81 0
-7 81 -82 0
7 -81 -82 0
81 -81 -82 0
82 -85 0
-23 -83 0
24 -83 0
23 -24 83 0
-8 83 -84 0
8 -83 -84 0
83 -83 -84 0
84 -85 0
85 -871 0
-15 -491 0
-13 -491 0
-11 -491 0
-9 -491 0
15 13 11 9 491 0
491 -493 0
10 -492 0
12 -492 0
14 -492 0
16 -492 0
-10 -12 -14 -16 492 0
492 -493 0
-491 -492 493 0
-4 -493 501 0
-501 509 0
-23 -494 0
-21 -494 0
-19 -494 0
-17 -494 0
23 21 19 17 494 0
494 -496 0
18 -495 0
20 -495 0
22 -495 0
24 -495 0
-18 -20 -22 -24 495 0
495 -496 0
-494 -495 496 0
-8 -496 505 0
-505 509 0
-509 -517 0
493 496 -497 0
497 -517 0
-3 -493 500 0
-500 508 0
-7 -496 504 0
-504 508 0
-508 -516 0
497 -516 0
-2 -493 499 0
-499 507 0
-6 -496 503 0
-503 507 0
-507 -515 0
497 -515 0
-1 -493 498 0
-498 506 0
-5 -496 502 0
-502 506 0
-506 -514 0
497 -514 0
517 516 515 514 869 0
516 515 514 837 0
3 -473 0
-16 -464 0
-13 -464 0
-11 -464 0
-9 -464 0
16 13 11 9 464 0
464 -466 0
10 -465 0
12 -465 0
14 -465 0
15 -465 0
-10 -12 -14 -15 465 0
465 -466 0
-464 -465 466 0
466 -473 0
-3 -466 473 0
-473 481 0
7 -477 0
-24 -467 0
-21 -467 0
-19 -467 0
-17 -467 0
24 21 19 17 467 0
467 -469 0
18 -468 0
20 -468 0
22 -468 0
23 -468 0
-18 -20 -22 -23 468 0
468 -469 0
-467 -468 469 0
469 -477 0
-7 -469 477 0
-477 481 0
473 477 -481 0
-481 -489 0
466 469 -470 0
470 -489 0
2 -472 0
466 -472 0
-2 -466 472 0
-472 480 0
6 -476 0
469 -476 0
-6 -469 476 0
-476 480 0
472 476 -480 0
-480 -488 0
470 -488 0
1 -471 0
466 -471 0
-1 -466 471 0
-471 479 0
5 -475 0
469 -475 0
-5 -469 475 0
-475 479 0
471 475 -479 0
-479 -487 0
470 -487 0
489 488 487 835 0
517 515 514 805 0
4 -447 0
-15 -437 0
-14 -437 0
-11 -437 0
-9 -437 0
15 14 11 9 437 0
437 -439 0
10 -438 0
12 -438 0
13 -438 0
16 -438 0
-10 -12 -13 -16 438 0
438 -439 0
-437 -438 439 0
439 -447 0
-4 -439 447 0
-447 455 0
8 -451 0
-23 -440 0
-22 -440 0
-19 -440 0
-17 -440 0
23 22 19 17 440 0
440 -442 0
18 -441 0
20 -441 0
21 -441 0
24 -441 0
-18 -20 -21 -24 441 0
441 -442 0
-440 -441 442 0
442 -451 0
-8 -442 451 0
-451 455 0
447 451 -455 0
-455 -463 0
439 442 -443 0
443 -463 0
2 -445 0
439 -445 0
-2 -439 445 0
-445 453 0
6 -449 0
442 -449 0
-6 -442 449 0
-449 453 0
445 449 -453 0
-453 -461 0
443 -461 0
1 -444 0
439 -444 0
-1 -439 444 0
-444 452 0
5 -448 0
442 -448 0
-5 -442 448 0
-448 452 0
444 448 -452 0
-452 -460 0
443 -460 0
463 461 460 801 0
515 514 773 0
488 487 771 0
461 460 769 0
2 -418 0
-16 -410 0
-14 -410 0
-11 -410 0
-9 -410 0
16 14 11 9 410 0
410 -412 0
10 -411 0
12 -411 0
13 -411 0
15 -411 0
-10 -12 -13 -15 411 0
411 -412 0
-410 -411 412 0
412 -418 0
-2 -412 418 0
-418 426 0
6 -422 0
-24 -413 0
-22 -413 0
-19 -413 0
-17 -413 0
24 22 19 17 413 0
413 -415 0
18 -414 0
20 -414 0
21 -414 0
23 -414 0
-18 -20 -21 -23 414 0
414 -415 0
-413 -414 415 0
415 -422 0
-6 -415 422 0
-422 426 0
418 422 -426 0
-426 -434 0
412 415 -416 0
416 -434 0
1 -417 0
412 -417 0
-1 -412 417 0
-417 425 0
5 -421 0
415 -421 0
-5 -415 421 0
-421 425 0
417 421 -425 0
-425 -433 0
416 -433 0
434 433 767 0
517 516 514 741 0
4 -393 0
-15 -383 0
-13 -383 0
-12 -383 0
-9 -383 0
15 13 12 9 383 0
383 -385 0
10 -384 0
11 -384 0
14 -384 0
16 -384 0
-10 -11 -14 -16 384 0
384 -385 0
-383 -384 385 0
385 -393 0
-4 -385 393 0
-393 401 0
8 -397 0
-23 -386 0
-21 -386 0
-20 -386 0
-17 -386 0
23 21 20 17 386 0
386 -388 0
18 -387 0
19 -387 0
22 -387 0
24 -387 0
-18 -19 -22 -24 387 0
387 -388 0
-386 -387 388 0
388 -397 0
-8 -388 397 0
-397 401 0
393 397 -401 0
-401 -409 0
385 388 -389 0
389 -409 0
3 -392 0
385 -392 0
-3 -385 392 0
-392 400 0
7 -396 0
388 -396 0
-7 -388 396 0
-396 400 0
392 396 -400 0
-400 -408 0
389 -408 0
1 -390 0
385 -390 0
-1 -385 390 0
-390 398 0
5 -394 0
388 -394 0
-5 -388 394 0
-394 398 0
390 394 -398 0
-398 -406 0
389 -406 0
409 408 406 733 0
516 514 709 0
489 487 707 0
408 406 701 0
3 -365 0
-16 -356 0
-13 -356 0
-12 -356 0
-9 -356 0
16 13 12 9 356 0
356 -358 0
10 -357 0
11 -357 0
14 -357 0
15 -357 0
-10 -11 -14 -15 357 0
357 -358 0
-356 -357 358 0
358 -365 0
-3 -358 365 0
-365 373 0
7 -369 0
-24 -359 0
-21 -359 0
-20 -359 0
-17 -359 0
24 21 20 17 359 0
359 -361 0
18 -360 0
19 -360 0
22 -360 0
23 -360 0
-18 -19 -22 -23 360 0
360 -361 0
-359 -360 361 0
361 -369 0
-7 -361 369 0
-369 373 0
365 369 -373 0
-373 -381 0
358 361 -362 0
362 -381 0
1 -363 0
358 -363 0
-1 -358 363 0
-363 371 0
5 -367 0
361 -367 0
-5 -361 367 0
-367 371 0
363 367 -371 0
-371 -379 0
362 -379 0
381 379 699 0
517 514 677 0
463 460 673 0
409 406 669 0
4 -339 0
-15 -329 0
-14 -329 0
-12 -329 0
-9 -329 0
15 14 12 9 329 0
329 -331 0
10 -330 0
11 -330 0
13 -330 0
16 -330 0
-10 -11 -13 -16 330 0
330 -331 0
-329 -330 331 0
331 -339 0
-4 -331 339 0
-339 347 0
8 -343 0
-23 -332 0
-22 -332 0
-20 -332 0
-17 -332 0
23 22 20 17 332 0
332 -334 0
18 -333 0
19 -333 0
21 -333 0
24 -333 0
-18 -19 -21 -24 333 0
333 -334 0
-332 -333 334 0
334 -343 0
-8 -334 343 0
-343 347 0
339 343 -347 0
-347 -355 0
331 334 -335 0
335 -355 0
1 -336 0
331 -336 0
-1 -331 336 0
-336 344 0
5 -340 0
334 -340 0
-5 -334 340 0
-340 344 0
336 340 -344 0
-344 -352 0
335 -352 0
355 352 665 0
517 516 515 645 0
4 -285 0
-15 -275 0
-13 -275 0
-11 -275 0
-10 -275 0
15 13 11 10 275 0
275 -277 0
9 -276 0
12 -276 0
14 -276 0
16 -276 0
-9 -12 -14 -16 276 0
276 -277 0
-275 -276 277 0
277 -285 0
-4 -277 285 0
-285 293 0
8 -289 0
-23 -278 0
-21 -278 0
-19 -278 0
-18 -278 0
23 21 19 18 278 0
278 -280 0
17 -279 0
20 -279 0
22 -279 0
24 -279 0
-17 -20 -22 -24 279 0
279 -280 0
-278 -279 280 0
280 -289 0
-8 -280 289 0
-289 293 0
285 289 -293 0
-293 -301 0
277 280 -281 0
281 -301 0
3 -284 0
277 -284 0
-3 -277 284 0
-284 292 0
7 -288 0
280 -288 0
-7 -280 288 0
-288 292 0
284 288 -292 0
-292 -300 0
281 -300 0
2 -283 0
277 -283 0
-2 -277 283 0
-283 291 0
6 -287 0
280 -287 0
-6 -280 287 0
-287 291 0
283 287 -291 0
-291 -299 0
281 -299 0
301 300 299 629 0
516 515 613 0
489 488 611 0
300 299 597 0
3 -257 0
-16 -248 0
-13 -248 0
-11 -248 0
-10 -248 0
16 13 11 10 248 0
248 -250 0
9 -249 0
12 -249 0
14 -249 0
15 -249 0
-9 -12 -14 -15 249 0
249 -250 0
-248 -249 250 0
250 -257 0
-3 -250 257 0
-257 265 0
7 -261 0
-24 -251 0
-21 -251 0
-19 -251 0
-18 -251 0
24 21 19 18 251 0
251 -253 0
17 -252 0
20 -252 0
22 -252 0
23 -252 0
-17 -20 -22 -23 252 0
252 -253 0
-251 -252 253 0
253 -261 0
-7 -253 261 0
-261 265 0
257 261 -265 0
-265 -273 0
250 253 -254 0
254 -273 0
2 -256 0
250 -256 0
-2 -250 256 0
-256 264 0
6 -260 0
253 -260 0
-6 -253 260 0
-260 264 0
256 260 -264 0
-264 -272 0
254 -272 0
273 272 595 0
517 515 581 0
463 461 577 0
301 299 565 0
4 -231 0
-15 -221 0
-14 -221 0
-11 -221 0
-10 -221 0
15 14 11 10 221 0
221 -223 0
9 -222 0
12 -222 0
13 -222 0
16 -222 0
-9 -12 -13 -16 222 0
222 -223 0
-221 -222 223 0
223 -231 0
-4 -223 231 0
-231 239 0
8 -235 0
-23 -224 0
-22 -224 0
-19 -224 0
-18 -224 0
23 22 19 18 224 0
224 -226 0
17 -225 0
20 -225 0
21 -225 0
24 -225 0
-17 -20 -21 -24 225 0
225 -226 0
-224 -225 226 0
226 -235 0
-8 -226 235 0
-235 239 0
231 235 -239 0
-239 -247 0
223 226 -227 0
227 -247 0
2 -229 0
223 -229 0
-2 -223 229 0
-229 237 0
6 -233 0
226 -233 0
-6 -226 233 0
-233 237 0
229 233 -237 0
-237 -245 0
227 -245 0
247 245 561 0
517 516 549 0
409 408 541 0
301 300 533 0
4 -177 0
-15 -167 0
-13 -167 0
-12 -167 0
-10 -167 0
15 13 12 10 167 0
167 -169 0
9 -168 0
11 -168 0
14 -168 0
16 -168 0
-9 -11 -14 -16 168 0
168 -169 0
-167 -168 169 0
169 -177 0
-4 -169 177 0
-177 185 0
8 -181 0
-23 -170 0
-21 -170 0
-20 -170 0
-18 -170 0
23 21 20 18 170 0
170 -172 0
17 -171 0
19 -171 0
22 -171 0
24 -171 0
-17 -19 -22 -24 171 0
171 -172 0
-170 -171 172 0
172 -181 0
-8 -172 181 0
-181 185 0
177 181 -185 0
-185 -193 0
169 172 -173 0
173 -193 0
3 -176 0
169 -176 0
-3 -169 176 0
-176 184 0
7 -180 0
172 -180 0
-7 -172 180 0
-180 184 0
176 180 -184 0
-184 -192 0
173 -192 0
193 192 525 0
-16 -86 0
-14 -86 0
-12 -86 0
-10 -86 0
86 -88 0
9 -87 0
11 -87 0
13 -87 0
15 -87 0
87 -88 0
-24 -89 0
-22 -89 0
-20 -89 0
-18 -89 0
89 -91 0
17 -90 0
19 -90 0
21 -90 0
23 -90 0
90 -91 0
88 91 -92 0
92 -105 0
1 -93 0
88 -93 0
5 -97 0
91 -97 0
93 97 -101 0
101 -105 0
92 -106 0
2 -94 0
88 -94 0
6 -98 0
91 -98 0
94 98 -102 0
102 -106 0
92 -107 0
3 -95 0
88 -95 0
7 -99 0
91 -99 0
95 99 -103 0
103 -107 0
92 -108 0
4 -96 0
88 -96 0
8 -100 0
91 -100 0
96 100 -104 0
104 -108 0
-15 -113 0
-14 -113 0
-12 -113 0
-10 -113 0
15 14 12 10 113 0
113 -115 0
9 -114 0
11 -114 0
13 -114 0
16 -114 0
-9 -11 -13 -16 114 0
114 -115 0
-113 -114 115 0
-23 -116 0
-22 -116 0
-20 -116 0
-18 -116 0
23 22 20 18 116 0
116 -118 0
17 -117 0
19 -117 0
21 -117 0
24 -117 0
-17 -19 -21 -24 117 0
117 -118 0
-116 -117 118 0
115 118 -119 0
119 -132 0
1 -120 0
115 -120 0
5 -124 0
118 -124 0
120 124 -128 0
128 -132 0
119 -133 0
2 -121 0
115 -121 0
6 -125 0
118 -125 0
121 125 -129 0
129 -133 0
119 -134 0
3 -122 0
115 -122 0
7 -126 0
118 -126 0
122 126 -130 0
130 -134 0
4 -123 0
115 -123 0
-4 -115 123 0
-123 131 0
8 -127 0
118 -127 0
-8 -118 127 0
-127 131 0
123 127 -131 0
-131 -139 0
119 -139 0
-16 -140 0
-13 -140 0
-12 -140 0
-10 -140 0
16 13 12 10 140 0
140 -142 0
9 -141 0
11 -141 0
14 -141 0
15 -141 0
-9 -11 -14 -15 141 0
141 -142 0
-140 -141 142 0
-24 -143 0
-21 -143 0
-20 -143 0
-18 -143 0
24 21 20 18 143 0
143 -145 0
17 -144 0
19 -144 0
22 -144 0
23 -144 0
-17 -19 -22 -23 144 0
144 -145 0
-143 -144 145 0
142 145 -146 0
146 -159 0
1 -147 0
142 -147 0
5 -151 0
145 -151 0
147 151 -155 0
155 -159 0
146 -160 0
2 -148 0
142 -148 0
6 -152 0
145 -152 0
148 152 -156 0
156 -160 0
146 -162 0
4 -150 0
142 -150 0
8 -154 0
145 -154 0
150 154 -158 0
158 -162 0
3 -149 0
142 -149 0
-3 -142 149 0
-149 157 0
7 -153 0
145 -153 0
-7 -145 153 0
-153 157 0
149 153 -157 0
-157 -165 0
146 -165 0
173 -186 0
1 -174 0
169 -174 0
5 -178 0
172 -178 0
174 178 -182 0
182 -186 0
173 -187 0
2 -175 0
169 -175 0
6 -179 0
172 -179 0
175 179 -183 0
183 -187 0
-16 -194 0
-14 -194 0
-11 -194 0
-10 -194 0
16 14 11 10 194 0
194 -196 0
9 -195 0
12 -195 0
13 -195 0
15 -195 0
-9 -12 -13 -15 195 0
195 -196 0
-194 -195 196 0
-24 -197 0
-22 -197 0
-19 -197 0
-18 -197 0
24 22 19 18 197 0
197 -199 0
17 -198 0
20 -198 0
21 -198 0
23 -198 0
-17 -20 -21 -23 198 0
198 -199 0
-197 -198 199 0
196 199 -200 0
200 -213 0
1 -201 0
196 -201 0
5 -205 0
199 -205 0
201 205 -209 0
209 -213 0
200 -215 0
3 -203 0
196 -203 0
7 -207 0
199 -207 0
203 207 -211 0
211 -215 0
200 -216 0
4 -204 0
196 -204 0
8 -208 0
199 -208 0
204 208 -212 0
212 -216 0
2 -202 0
196 -202 0
-2 -196 202 0
-202 210 0
6 -206 0
199 -206 0
-6 -199 206 0
-206 210 0
202 206 -210 0
-210 -218 0
200 -218 0
227 -240 0
1 -228 0
223 -228 0
5 -232 0
226 -232 0
228 232 -236 0
236 -240 0
227 -242 0
3 -230 0
223 -230 0
7 -234 0
226 -234 0
230 234 -238 0
238 -242 0
254 -267 0
1 -255 0
250 -255 0
5 -259 0
253 -259 0
255 259 -263 0
263 -267 0
254 -270 0
4 -258 0
250 -258 0
8 -262 0
253 -262 0
258 262 -266 0
266 -270 0
281 -294 0
1 -282 0
277 -282 0
5 -286 0
280 -286 0
282 286 -290 0
290 -294 0
-16 -302 0
-14 -302 0
-12 -302 0
-9 -302 0
16 14 12 9 302 0
302 -304 0
10 -303 0
11 -303 0
13 -303 0
15 -303 0
-10 -11 -13 -15 303 0
303 -304 0
-302 -303 304 0
-24 -305 0
-22 -305 0
-20 -305 0
-17 -305 0
24 22 20 17 305 0
305 -307 0
18 -306 0
19 -306 0
21 -306 0
23 -306 0
-18 -19 -21 -23 306 0
306 -307 0
-305 -306 307 0
304 307 -308 0
308 -322 0
2 -310 0
304 -310 0
6 -314 0
307 -314 0
310 314 -318 0
318 -322 0
308 -323 0
3 -311 0
304 -311 0
7 -315 0
307 -315 0
311 315 -319 0
319 -323 0
308 -324 0
4 -312 0
304 -312 0
8 -316 0
307 -316 0
312 316 -320 0
320 -324 0
1 -309 0
304 -309 0
-1 -304 309 0
-309 317 0
5 -313 0
307 -313 0
-5 -307 313 0
-313 317 0
309 313 -317 0
-317 -325 0
308 -325 0
335 -349 0
2 -337 0
331 -337 0
6 -341 0
334 -341 0
337 341 -345 0
345 -349 0
335 -350 0
3 -338 0
331 -338 0
7 -342 0
334 -342 0
338 342 -346 0
346 -350 0
362 -376 0
2 -364 0
358 -364 0
6 -368 0
361 -368 0
364 368 -372 0
372 -376 0
362 -378 0
4 -366 0
358 -366 0
8 -370 0
361 -370 0
366 370 -374 0
374 -378 0
389 -403 0
2 -391 0
385 -391 0
6 -395 0
388 -395 0
391 395 -399 0
399 -403 0
416 -431 0
3 -419 0
412 -419 0
7 -423 0
415 -423 0
419 423 -427 0
427 -431 0
416 -432 0
4 -420 0
412 -420 0
8 -424 0
415 -424 0
420 424 -428 0
428 -432 0
443 -458 0
3 -446 0
439 -446 0
7 -450 0
442 -450 0
446 450 -454 0
454 -458 0
470 -486 0
4 -474 0
466 -474 0
8 -478 0
469 -478 0
474 478 -482 0
482 -486 0
107 -518 0
108 -518 0
134 -520 0
119 -135 0
131 -135 0
135 -520 0
146 -161 0
157 -161 0
161 -522 0
162 -522 0
215 -526 0
216 -526 0
242 -528 0
227 -243 0
239 -243 0
243 -528 0
254 -269 0
265 -269 0
269 -530 0
270 -530 0
323 -534 0
324 -534 0
350 -536 0
335 -351 0
347 -351 0
351 -536 0
362 -377 0
373 -377 0
377 -538 0
378 -538 0
431 -542 0
432 -542 0
458 -544 0
443 -459 0
455 -459 0
459 -544 0
470 -485 0
481 -485 0
485 -546 0
486 -546 0
106 -550 0
108 -550 0
133 -552 0
135 -552 0
160 -554 0
162 -554 0
187 -556 0
173 -189 0
185 -189 0
189 -556 0
200 -214 0
210 -214 0
214 -558 0
216 -558 0
254 -268 0
264 -268 0
268 -562 0
270 -562 0
322 -566 0
324 -566 0
349 -568 0
351 -568 0
376 -570 0
378 -570 0
403 -572 0
389 -405 0
401 -405 0
405 -572 0
416 -430 0
426 -430 0
430 -574 0
432 -574 0
470 -484 0
480 -484 0
484 -578 0
486 -578 0
106 -582 0
107 -582 0
133 -584 0
134 -584 0
160 -586 0
161 -586 0
187 -588 0
173 -188 0
184 -188 0
188 -588 0
214 -590 0
215 -590 0
227 -241 0
237 -241 0
241 -592 0
242 -592 0
322 -598 0
323 -598 0
349 -600 0
350 -600 0
376 -602 0
377 -602 0
403 -604 0
389 -404 0
400 -404 0
404 -604 0
430 -606 0
431 -606 0
443 -457 0
453 -457 0
457 -608 0
458 -608 0
106 -614 0
107 -614 0
108 -614 0
133 -616 0
134 -616 0
135 -616 0
160 -618 0
161 -618 0
162 -618 0
187 -620 0
188 -620 0
189 -620 0
214 -622 0
215 -622 0
216 -622 0
241 -624 0
242 -624 0
243 -624 0
268 -626 0
269 -626 0
270 -626 0
322 -630 0
323 -630 0
324 -630 0
349 -632 0
350 -632 0
351 -632 0
376 -634 0
377 -634 0
378 -634 0
403 -636 0
404 -636 0
405 -636 0
430 -638 0
431 -638 0
432 -638 0
457 -640 0
458 -640 0
459 -640 0
484 -642 0
485 -642 0
486 -642 0
105 -646 0
108 -646 0
132 -648 0
135 -648 0
159 -650 0
162 -650 0
186 -652 0
189 -652 0
213 -654 0
216 -654 0
240 -656 0
243 -656 0
267 -658 0
270 -658 0
294 -660 0
281 -297 0
293 -297 0
297 -660 0
308 -321 0
317 -321 0
321 -662 0
324 -662 0
362 -375 0
371 -375 0
375 -666 0
378 -666 0
416 -429 0
425 -429 0
429 -670 0
432 -670 0
470 -483 0
479 -483 0
483 -674 0
486 -674 0
105 -678 0
107 -678 0
132 -680 0
134 -680 0
159 -682 0
161 -682 0
186 -684 0
188 -684 0
213 -686 0
215 -686 0
240 -688 0
242 -688 0
267 -690 0
269 -690 0
294 -692 0
281 -296 0
292 -296 0
296 -692 0
321 -694 0
323 -694 0
335 -348 0
344 -348 0
348 -696 0
350 -696 0
429 -702 0
431 -702 0
443 -456 0
452 -456 0
456 -704 0
458 -704 0
105 -710 0
107 -710 0
108 -710 0
132 -712 0
134 -712 0
135 -712 0
159 -714 0
161 -714 0
162 -714 0
186 -716 0
188 -716 0
189 -716 0
213 -718 0
215 -718 0
216 -718 0
240 -720 0
242 -720 0
243 -720 0
267 -722 0
269 -722 0
270 -722 0
294 -724 0
296 -724 0
297 -724 0
321 -726 0
323 -726 0
324 -726 0
348 -728 0
350 -728 0
351 -728 0
375 -730 0
377 -730 0
378 -730 0
429 -734 0
431 -734 0
432 -734 0
456 -736 0
458 -736 0
459 -736 0
483 -738 0
485 -738 0
486 -738 0
105 -742 0
106 -742 0
132 -744 0
133 -744 0
159 -746 0
160 -746 0
186 -748 0
187 -748 0
213 -750 0
214 -750 0
240 -752 0
241 -752 0
267 -754 0
268 -754 0
294 -756 0
281 -295 0
291 -295 0
295 -756 0
321 -758 0
322 -758 0
348 -760 0
349 -760 0
375 -762 0
376 -762 0
389 -402 0
398 -402 0
402 -764 0
403 -764 0
105 -774 0
106 -774 0
108 -774 0
132 -776 0
133 -776 0
135 -776 0
159 -778 0
160 -778 0
162 -778 0
186 -780 0
187 -780 0
189 -780 0
213 -782 0
214 -782 0
216 -782 0
240 -784 0
241 -784 0
243 -784 0
267 -786 0
268 -786 0
270 -786 0
294 -788 0
295 -788 0
297 -788 0
321 -790 0
322 -790 0
324 -790 0
348 -792 0
349 -792 0
351 -792 0
375 -794 0
376 -794 0
378 -794 0
402 -796 0
403 -796 0
405 -796 0
429 -798 0
430 -798 0
432 -798 0
483 -802 0
484 -802 0
486 -802 0
105 -806 0
106 -806 0
107 -806 0
132 -808 0
133 -808 0
134 -808 0
159 -810 0
160 -810 0
161 -810 0
186 -812 0
187 -812 0
188 -812 0
213 -814 0
214 -814 0
215 -814 0
240 -816 0
241 -816 0
242 -816 0
267 -818 0
268 -818 0
269 -818 0
294 -820 0
295 -820 0
296 -820 0
321 -822 0
322 -822 0
323 -822 0
348 -824 0
349 -824 0
350 -824 0
375 -826 0
376 -826 0
377 -826 0
402 -828 0
403 -828 0
404 -828 0
429 -830 0
430 -830 0
431 -830 0
456 -832 0
457 -832 0
458 -832 0
105 -838 0
106 -838 0
107 -838 0
108 -838 0
132 -840 0
133 -840 0
134 -840 0
135 -840 0
159 -842 0
160 -842 0
161 -842 0
162 -842 0
186 -844 0
187 -844 0
188 -844 0
189 -844 0
213 -846 0
214 -846 0
215 -846 0
216 -846 0
240 -848 0
241 -848 0
242 -848 0
243 -848 0
267 -850 0
268 -850 0
269 -850 0
270 -850 0
294 -852 0
295 -852 0
296 -852 0
297 -852 0
321 -854 0
322 -854 0
323 -854 0
324 -854 0
348 -856 0
349 -856 0
350 -856 0
351 -856 0
375 -858 0
376 -858 0
377 -858 0
378 -858 0
402 -860 0
403 -860 0
404 -860 0
405 -860 0
429 -862 0
430 -862 0
431 -862 0
432 -862 0
456 -864 0
457 -864 0
458 -864 0
459 -864 0
483 -866 0
484 -866 0
485 -866 0
486 -866 0
-869 -837 -835 -805 -801 -773 -771 -769 -767 -741 -733 -709 -707 -701 -699 -677 -673 -669 -665 -645 -629 -613 -611 -597 -595 -581 -577 -565 -561 -549 -541 -533 -525 105 106 107 108 132 133 134 139 159 160 162 165 186 187 192 193 213 215 216 218 240 242 245 247 267 270 272 273 294 299 300 301 322 323 324 325 349 350 352 355 376 378 379 381 403 406 408 409 431 432 433 434 458 460 461 463 486 487 488 489 514 515 516 517 518 520 522 526 528 530 534 536 538 542 544 546 550 552 554 556 558 562 566 568 570 572 574 578 582 584 586 588 590 592 598 600 602 604 606 608 614 616 618 620 622 624 626 630 632 634 636 638 640 642 646 648 650 652 654 656 658 660 662 666 670 674 678 680 682 684 686 688 690 692 694 696 702 704 710 712 714 716 718 720 722 724 726 728 730 734 736 738 742 744 746 748 750 752 754 756 758 760 762 764 774 776 778 780 782 784 786 788 790 792 794 796 798 802 806 808 810 812 814 816 818 820 822 824 826 828 830 832 838 840 842 844 846 848 850 852 854 856 858 860 862 864 866 -870 0
870 -871 0
-1 5 -872 0
872 -910 0
-1 -5 873 0
1 5 873 0
-5 5 873 0
-2 6 -874 0
-873 874 -875 0
875 -910 0
-2 -6 876 0
2 6 876 0
-6 6 876 0
-873 -876 877 0
-3 7 -878 0
-877 878 -879 0
879 -910 0
-3 -7 880 0
3 7 880 0
-7 7 880 0
-877 -880 881 0
-4 8 -882 0
-881 882 -883 0
883 -910 0
-4 -8 884 0
4 8 884 0
-8 8 884 0
-881 -884 885 0
-885 50 -886 0
886 -910 0
-9 -17 887 0
9 17 887 0
-17 17 887 0
-885 -887 888 0
-888 51 -889 0
889 -910 0
-10 -18 890 0
10 18 890 0
-18 18 890 0
-888 -890 891 0
-891 52 -892 0
892 -910 0
-11 -19 893 0
11 19 893 0
-19 19 893 0
-891 -893 894 0
-894 53 -895 0
895 -910 0
-12 -20 896 0
12 20 896 0
-20 20 896 0
-894 -896 897 0
-897 54 -898 0
898 -910 0
-13 -21 899 0
13 21 899 0
-21 21 899 0
-897 -899 900 0
-900 55 -901 0
901 -910 0
-14 -22 902 0
14 22 902 0
-22 22 902 0
-900 -902 903 0
-903 56 -904 0
904 -910 0
-15 -23 905 0
15 23 905 0
-23 23 905 0
-903 -905 906 0
-906 57 -907 0
907 -910 0
871 0
910 0
